(declare-const x0 Bool)
(declare-const x1 Bool)
(declare-const x2 Bool)
(declare-const x3 Bool)
(declare-const x4 Bool)
(declare-const x5 Bool)
(declare-const x6 Bool)
(declare-const x7 Bool)
(declare-const x8 Bool)
(declare-const x9 Bool)
(declare-const x10 Bool)
(declare-const x11 Bool)
(declare-const x12 Bool)
(declare-const x13 Bool)
(declare-const y0 Real)
(declare-const y1 Real)
(declare-const y2 Real)
(declare-const y3 Real)
(declare-const y4 Real)
(declare-const y5 Real)
(declare-const y6 Real)
(declare-const y7 Real)
(declare-const y8 Real)
(declare-const y9 Real)
(declare-const y10 Real)
(declare-const y11 Real)
(declare-const y12 Real)
(declare-const y13 Real)
(declare-const y14 Real)
(declare-const y15 Real)
(declare-const y16 Real)
(declare-const y17 Real)
(declare-const y18 Real)
(declare-const y19 Real)
(declare-const y20 Real)
(declare-const y21 Real)
(declare-const y22 Real)
(declare-const y23 Real)
(declare-const y24 Real)
(declare-const y25 Real)
(declare-const y26 Real)
(declare-const y27 Real)
(declare-const y28 Real)
(declare-const y29 Real)
(declare-const y30 Real)
(declare-const y31 Real)
(assert (and (or (< 41 y31) x1) false))
(assert (= (+ 49 (+ y11 87)) 57))
(assert (= 87 y28))
(assert (or (or (= (or true false) false) (= x1 (and false false))) (= (or (and x1 true) (= x7 x13)) true)))
(assert (or (< (+ (+ 42 y30) y2) 9) (= 24 36)))
(assert (= (< y10 94) (< y22 88)))
(assert (and x12 (= x1 false)))
(assert (= y15 y6))
(assert (or (or false false) (or (< y7 y15) x4)))
(assert (= y15 17))
(check-sat)
